 O  C  H
1.0
       11.5000000000         0.0000000000         0.0000000000
        0.0000000000        12.5000000000         0.0000000000
        0.0000000000         0.0000000000         7.7000000000
    C    H    N    O
    4    4    2    2
Cartesian
     6.107947569         5.099723826         4.150680976
     6.356582056         7.922941820         4.418097280
     5.037087303         7.363860475         4.190534217
     7.426455647         7.104249518         4.489617331
     6.457898422         8.990163990         4.513965459
     4.141943398         5.534187192         3.912919732
     8.121830500         5.154768904         4.368895031
     8.430334687         7.472914216         4.638043862
     5.036832417         5.966050683         4.097523217
     7.308394506         5.746956254         4.377062669
     6.015810322         3.894305750         4.017101700
     3.997204226         7.992060278         4.075684089

